42
15
0 15 16 18 19 20 21 28 29 30 31 35
1 15 17 18 19 20 23 25 26 28 29 32 33 36 41
2 15 17 18 20 23 28 29 30 32 35 36 37 40
3 15 16 17 18 22 23 26 27 28 29 30 36 38 39 41
4 17 18 20 22 23 25 27 29 30 34 36 37 38 41
5 15 17 29 32 33 37 38 39 40 41
6 17 18 22 23 26 29 30 34 35 36 38 41
7 15 16 17 18 20 23 27 29 33 34 35 36 37 40 41
8 15 16 18 20 23 24 26 27 28 31 36 37
9 15 16 17 18 19 23 25 26 27 28 29 30 31 37 40 41
10 15 20 21 24 26 27 30 32 33 34 41
11 16 23 24 25 27 33 35
12 35 37
13 22 32
14 38
